795
41888
655
3564
7629
65859
3860
805
520
42237
540
126
857
235
14110
14672
306
24745
13769
728
984
68966
25357
25195
548
7395
3630
3521
64
978
144
13342
1684
3446
41603
26563
124
858
1558
327
1359
7299
1896
1869
3608
64210
323
2189
41119
15645
13029
500
852
13613
29
3666
297
179
65387
1462
6489
109
1926
3687
13345
41750
64253
494
3379
3594
752
1315
13614
3549
7191
83
386
3332
1080
3445
182
42793
19
25676
213
23965
1336
399
13531
14687
1818
6816
313
217
425
93340
1411
362
24049
13041
